NAME: tsp_75
COMMENT: Random TSP instance
TYPE: TSP
DIMENSION: 50
EDGE_WEIGHT_TYPE: EUC_2D
NODE_COORD_SECTION
1 702 865
2 524 454
3 47 539
4 372 938
5 378 393
6 132 3
7 47 405
8 435 540
9 765 439
10 879 284
11 86 451
12 626 73
13 926 587
14 17 216
15 802 295
16 957 619
17 836 390
18 746 448
19 92 260
20 369 406
21 99 812
22 894 187
23 837 672
24 546 209
25 380 447
26 163 253
27 687 234
28 549 222
29 75 993
30 572 847
31 589 210
32 925 764
33 271 21
34 122 75
35 691 527
36 746 864
37 552 997
38 485 790
39 790 843
40 133 845
41 981 322
42 167 997
43 214 555
44 425 885
45 497 323
46 225 395
47 672 432
48 503 54
49 384 193
50 56 48
